--- Job gams_0064_002_32_04_0.67_05_0.50_0.90_22_problem.txt Start 02/24/21 20:07:09 35.2.0 r33388c4 WEX-WEI x86 64bit/MS Windows
--- Applying:
    C:\Users\MariaSosnovskaya\GAMS35\gmsprmNT.txt
--- GAMS Parameters defined
    Input C:\Users\MariaSosnovskaya\Downloads\WfmGams3\problems\gams_0064_002_32_04_0.67_05_0.50_0.90_22_problem.txt
    ScrDir C:\Users\MariaSosnovskaya\Downloads\WfmGams3\225e\
    SysDir C:\Users\MariaSosnovskaya\GAMS35\
Licensee: GAMS Evaluation License                        S210124/0001AB-GEN
          Sobolev Institute of Mathematics, Discrete Optimization LaDCE1098
          C:\Users\MariaSosnovskaya\GAMS35\gamslice.txt
          Evaluation license: Not for commercial or production use
GAMS 35.2.0   Copyright (C) 1987-2021 GAMS Development. All rights reserved
--- Starting compilation
--- gams_0064_002_32_04_0.67_05_0.50_0.90_22_problem.txt(22) 3 Mb
--- . gams_0064_002_32_04_0.67_05_0.50_0.90_22.inc(6600) 3 Mb
--- gams_0064_002_32_04_0.67_05_0.50_0.90_22_problem.txt(98) 3 Mb
--- Starting execution: elapsed 0:00:00.031
--- gams_0064_002_32_04_0.67_05_0.50_0.90_22_problem.txt(6621) 4 Mb
--- Generating MIP model mymodel
--- gams_0064_002_32_04_0.67_05_0.50_0.90_22_problem.txt(6677) 9 Mb
---   16,769 rows  12,289 columns  56,257 non-zeroes
---   12,288 discrete-columns
--- Executing CPLEX (Solvelink=2): elapsed 0:00:00.155

IBM ILOG CPLEX   35.2.0 r33388c4 Released Jun 02, 2021 WEI x86 64bit/MS Window

--- GAMS/Cplex licensed for continuous and discrete problems.
--- Space for names approximately 0.61 Mb
--- Use option 'names no' to turn use of names off
--- GMO memory 6.31 Mb (peak 6.40 Mb)
--- Dictionary memory 0.00 Mb
--- Cplex 20.1.0.1 link memory 0.43 Mb (peak 1.99 Mb)
--- Starting Cplex

Version identifier: 20.1.0.1 | 2021-04-07 | 3a818710c
CPXPARAM_Advance                                 0
CPXPARAM_Threads                                 1
CPXPARAM_MIP_Display                             4
CPXPARAM_TimeLimit                               3600
CPXPARAM_MIP_Tolerances_AbsMIPGap                0
Generic callback                                 0x50
Tried aggregator 2 times.
MIP Presolve eliminated 8321 rows and 962 columns.
Aggregator did 192 substitutions.
Reduced MIP has 8256 rows, 11136 columns, and 37476 nonzeros.
Reduced MIP has 11136 binaries, 0 generals, 0 SOSs, and 0 indicators.
Presolve time = 0.08 sec. (42.06 ticks)
Probing fixed 928 vars, tightened 0 bounds.
Probing changed sense of 56 constraints.
Probing time = 0.08 sec. (29.54 ticks)
Tried aggregator 16 times.
MIP Presolve eliminated 448 rows and 985 columns.
Aggregator did 448 substitutions.
Reduced MIP has 7360 rows, 9703 columns, and 32876 nonzeros.
Reduced MIP has 9703 binaries, 0 generals, 0 SOSs, and 0 indicators.
Presolve time = 0.64 sec. (314.35 ticks)
Probing time = 0.02 sec. (4.38 ticks)
Tried aggregator 1 time.
Detecting symmetries...
Reduced MIP has 7360 rows, 9703 columns, and 32876 nonzeros.
Reduced MIP has 9703 binaries, 0 generals, 0 SOSs, and 0 indicators.
Presolve time = 0.05 sec. (29.22 ticks)
Probing time = 0.00 sec. (4.38 ticks)
Clique table members: 24159.
MIP emphasis: balance optimality and feasibility.
MIP search method: dynamic search.
Parallel mode: none, using 1 thread.
Tried aggregator 1 time.
No LP presolve or aggregator reductions.
Presolve time = 0.02 sec. (4.27 ticks)
Initializing dual steep norms . . .

Iteration log . . .
Iteration:     1   Dual objective     =          8480.000000
Perturbation started.
Iteration:   101   Dual objective     =          8480.000000
Iteration:   455   Dual objective     =          8479.999803
Iteration:   802   Dual objective     =          8479.999672
Iteration:  1150   Dual objective     =          8479.999564
Iteration:  1514   Dual objective     =          8479.999463
Iteration:  1885   Dual objective     =          8479.999348
Iteration:  2254   Dual objective     =          8479.999226
Iteration:  2588   Dual objective     =          8479.999181
Iteration:  2939   Dual objective     =          8479.999134
Iteration:  3272   Dual objective     =          8479.999105
Iteration:  3594   Dual objective     =          8479.999079
Iteration:  3898   Dual objective     =          8479.999059
Iteration:  4216   Dual objective     =          8479.999038
Iteration:  4518   Dual objective     =          8479.999017
Iteration:  4792   Dual objective     =          8479.999002
Iteration:  5016   Dual objective     =          8479.998990
Iteration:  5243   Dual objective     =          8479.998976
Iteration:  5482   Dual objective     =          8479.998963
Iteration:  5644   Dual objective     =          8479.998956
Iteration:  5790   Dual objective     =          8479.998950
Iteration:  5930   Dual objective     =          8479.998945
Iteration:  6068   Dual objective     =          8479.998938
Iteration:  6211   Dual objective     =          8479.998931
Iteration:  6355   Dual objective     =          8479.998927
Iteration:  6490   Dual objective     =          8479.998924
Iteration:  6628   Dual objective     =          8479.998921
Iteration:  6756   Dual objective     =          8479.998918
Iteration:  6888   Dual objective     =          8479.998916
Iteration:  7022   Dual objective     =          8479.998914
Iteration:  7146   Dual objective     =          8479.998913
Iteration:  7271   Dual objective     =          8479.998912
Iteration:  7393   Dual objective     =          8479.998910
Iteration:  7516   Dual objective     =          8479.998909
Iteration:  7630   Dual objective     =          8479.998908
Removing perturbation.
Root relaxation solution time = 0.92 sec. (522.55 ticks)

        Nodes                                         Cuts/
   Node  Left     Objective  IInf  Best Integer    Best Bound    ItCnt     Gap

      0     0     8480.0000  1355                   8480.0000     7725         
      0     0     8480.0000   809                    Cuts: 17     8357         
      0     0     8480.0000   609                    Cuts: 85     8797         
      0     0     8480.0000   617                    Cuts: 78     9274         
      0     2     8480.0000    72                   8480.0000     9274         
Elapsed time = 7.27 sec. (4345.40 ticks, tree = 0.01 MB, solutions = 0)
     14    14     8475.0000   189                   8480.0000    12432         
     25    23     8480.0000   266                   8480.0000    13337         
*    50+    2                         8480.0000     8480.0000             0.00%
Found incumbent of value 8480.000000 after 8.47 sec. (5167.50 ticks)

Zero-half cuts applied:  53
Lift and project cuts applied:  2
Gomory fractional cuts applied:  10

Root node processing (before b&c):
  Real time             =    7.22 sec. (4331.36 ticks)
Sequential b&c:
  Real time             =    1.25 sec. (838.03 ticks)
                          ------------
Total (root+branch&cut) =    8.47 sec. (5169.38 ticks)

--- MIP status (101): integer optimal solution.
--- Cplex Time: 8.47sec (det. 5169.42 ticks)

--- Fixing integer variables and solving final LP...

Version identifier: 20.1.0.1 | 2021-04-07 | 3a818710c
CPXPARAM_Advance                                 2
CPXPARAM_Threads                                 1
CPXPARAM_MIP_Display                             4
CPXPARAM_TimeLimit                               3600
CPXPARAM_MIP_Tolerances_AbsMIPGap                0
Tried aggregator 1 time.
LP Presolve eliminated 16769 rows and 12290 columns.
All rows and columns eliminated.
Presolve time = 0.00 sec. (7.09 ticks)

--- Fixed MIP status (1): optimal.
--- Cplex Time: 0.02sec (det. 12.43 ticks)


Proven optimal solution
MIP Solution:         8480.000000    (15938 iterations, 50 nodes)
Final Solve:          8480.000000    (0 iterations)

Best possible:        8480.000000
Absolute gap:            0.000000
Relative gap:            0.000000

--- Reading solution for model mymodel
--- gams_0064_002_32_04_0.67_05_0.50_0.90_22_problem.txt(6677) 9 Mb  8 secs
--- Executing after solve: elapsed 0:00:08.814
--- gams_0064_002_32_04_0.67_05_0.50_0.90_22_problem.txt(6678) 9 Mb--- gams_0064_002_32_04_0.67_05_0.50_0.90_22_problem.txt(6698) 9 Mb
--- Putfile results C:\Users\MariaSosnovskaya\Downloads\WfmGams3\problems\gams_0064_002_32_04_0.67_05_0.50_0.90_22_results.txt
*** Status: Normal completion
--- Job gams_0064_002_32_04_0.67_05_0.50_0.90_22_problem.txt Stop 02/24/21 20:07:18 elapsed 0:00:08.835
